
Gurobi 10.0.0 (win64) logging started Thu May 30 15:26:45 2024

Set parameter LogFile to value "C:\Users\ealvarezq\Documents\GitHub\Comillas\Models\JointResearch\05. Models\06.Benchmarking\L.Cont_Investments_per_hour\9n_mod1_ByStages_nc80/openStarNet_9n_mod1_ByStages_nc80.log"
Set parameter Method to value 2
Set parameter MIPFocus to value 1
Set parameter Presolve to value 2
Set parameter RINS to value 100
Set parameter MIPGap to value 0.01
Set parameter Threads to value 9
Set parameter TimeLimit to value 259200
Set parameter IterationLimit to value 760000000
Gurobi Optimizer version 10.0.0 build v10.0.0rc2 (win64)

CPU model: Intel(R) Core(TM) i7-8700 CPU @ 3.20GHz, instruction set [SSE2|AVX|AVX2]
Thread count: 6 physical cores, 12 logical processors, using up to 9 threads

Optimize a model with 20963 rows, 11153 columns and 63448 nonzeros
Model fingerprint: 0x0c18b39a
Variable types: 11117 continuous, 36 integer (36 binary)
Coefficient statistics:
  Matrix range     [4e-04, 3e+03]
  Objective range  [1e+00, 1e+00]
  Bounds range     [2e-04, 2e+00]
  RHS range        [2e-04, 1e+00]
Presolve removed 7123 rows and 3764 columns
Presolve time: 0.06s
Presolved: 13840 rows, 7389 columns, 47353 nonzeros
Variable types: 7353 continuous, 36 integer (36 binary)
Found heuristic solution: objective 4564.3576822
Root relaxation presolved: 13840 rows, 7389 columns, 47353 nonzeros

Root barrier log...

Ordering time: 0.01s

Barrier statistics:
 Dense cols : 36
 AA' NZ     : 1.639e+05
 Factor NZ  : 3.242e+05 (roughly 11 MB of memory)
 Factor Ops : 1.080e+07 (less than 1 second per iteration)
 Threads    : 9

                  Objective                Residual
Iter       Primal          Dual         Primal    Dual     Compl     Time
   0   4.70981787e+05 -7.85578593e+07  7.12e+00 4.07e+02  1.12e+04     0s
   1   7.79605632e+04 -3.17445349e+07  9.99e-01 5.76e-09  1.72e+03     0s
   2   1.99417459e+04 -5.79830629e+06  5.06e-02 1.75e-09  2.23e+02     0s
   3   9.52816320e+03 -1.89012469e+05  5.60e-14 8.60e-11  7.28e+00     0s
   4   2.07247325e+03 -3.00561457e+04  1.31e-13 1.09e-11  1.18e+00     0s
   5   1.04148111e+03 -1.01206131e+04  7.28e-14 3.59e-12  4.10e-01     0s
   6   6.68987123e+02 -2.68918975e+03  1.06e-13 2.00e-12  1.23e-01     0s
   7   3.68221443e+02 -6.92595023e+02  6.13e-14 2.40e-12  3.89e-02     0s
   8   2.37238361e+02 -2.39320483e+02  5.60e-14 1.45e-12  1.75e-02     0s
   9   1.19036498e+02 -1.32083179e+01  1.80e-13 1.38e-12  4.85e-03     0s
  10   9.23449822e+01  3.93110264e+01  3.36e-13 1.44e-12  1.95e-03     0s
  11   8.72599866e+01  5.47637896e+01  4.74e-13 2.73e-12  1.19e-03     0s
  12   8.22477067e+01  6.31988590e+01  4.20e-13 1.34e-12  6.99e-04     0s
  13   7.96879484e+01  6.66117435e+01  4.35e-12 1.16e-12  4.80e-04     0s
  14   7.89905308e+01  6.72489667e+01  3.62e-12 1.63e-12  4.31e-04     0s
  15   7.69280652e+01  7.00502650e+01  3.27e-12 1.12e-12  2.52e-04     0s
  16   7.57334729e+01  7.17479757e+01  8.93e-12 1.22e-12  1.46e-04     0s
  17   7.51052115e+01  7.39705389e+01  4.30e-12 3.24e-12  4.16e-05     0s
  18   7.49820313e+01  7.46093597e+01  7.24e-09 1.90e-12  1.37e-05     0s
  19   7.49370430e+01  7.48538721e+01  8.18e-09 1.12e-12  3.05e-06     0s
  20   7.49207852e+01  7.49044346e+01  2.04e-09 1.96e-12  6.00e-07     0s
  21   7.49190586e+01  7.49188068e+01  2.29e-10 2.16e-12  9.24e-09     0s
  22   7.49189904e+01  7.49189902e+01  2.17e-10 1.41e-12  9.33e-12     0s

Barrier solved model in 22 iterations and 0.30 seconds (0.30 work units)
Optimal objective 7.49189904e+01


Root relaxation: objective 7.491899e+01, 1463 iterations, 0.20 seconds (0.20 work units)

    Nodes    |    Current Node    |     Objective Bounds      |     Work
 Expl Unexpl |  Obj  Depth IntInf | Incumbent    BestBd   Gap | It/Node Time

     0     0   74.91899    0    3 4564.35768   74.91899  98.4%     -    0s
H    0     0                      78.5630284   74.91899  4.64%     -    0s
     0     0   77.62593    0    1   78.56303   77.62593  1.19%     -    0s
     0     0   77.62593    0    3   78.56303   77.62593  1.19%     -    0s

Cutting planes:
  Gomory: 1
  Cover: 1
  MIR: 9

Explored 1 nodes (1911 simplex iterations) in 0.72 seconds (0.53 work units)
Thread count was 9 (of 12 available processors)

Solution count 2: 78.563 4564.36 

Optimal solution found (tolerance 1.00e-02)
Best objective 7.856302842832e+01, best bound 7.856302842832e+01, gap 0.0000%

Gurobi 10.0.0 (win64) logging started Thu May 30 15:26:50 2024

Set parameter LogFile to value "C:\Users\ealvarezq\Documents\GitHub\Comillas\Models\JointResearch\05. Models\06.Benchmarking\L.Cont_Investments_per_hour\9n_mod1_ByStages_nc80/openStarNet_9n_mod1_ByStages_nc80.log"
Set parameter Method to value 2
Set parameter MIPFocus to value 1
Set parameter Presolve to value 2
Set parameter RINS to value 100
Set parameter MIPGap to value 0.01
Set parameter Threads to value 9
Set parameter TimeLimit to value 259200
Set parameter IterationLimit to value 760000000
Gurobi Optimizer version 10.0.0 build v10.0.0rc2 (win64)

CPU model: Intel(R) Core(TM) i7-8700 CPU @ 3.20GHz, instruction set [SSE2|AVX|AVX2]
Thread count: 6 physical cores, 12 logical processors, using up to 9 threads

Optimize a model with 20963 rows, 11117 columns and 51892 nonzeros
Model fingerprint: 0x6a4c3105
Coefficient statistics:
  Matrix range     [4e-04, 3e+03]
  Objective range  [1e+00, 1e+00]
  Bounds range     [2e-04, 2e+00]
  RHS range        [2e-04, 2e+01]
Presolve removed 19108 rows and 7365 columns
Presolve time: 0.02s
Presolved: 1855 rows, 3832 columns, 8263 nonzeros

Ordering time: 0.00s

Barrier statistics:
 AA' NZ     : 4.075e+03
 Factor NZ  : 1.836e+04 (roughly 2 MB of memory)
 Factor Ops : 2.394e+05 (less than 1 second per iteration)
 Threads    : 1

                  Objective                Residual
Iter       Primal          Dual         Primal    Dual     Compl     Time
   0   5.74282727e+05 -5.05918273e+07  7.40e+00 5.63e+02  3.28e+04     0s
   1   8.37317752e+04 -2.69851440e+07  9.13e-01 2.91e-11  5.45e+03     0s
   2   2.86093847e+04 -7.05506978e+06  1.44e-01 3.27e-11  9.92e+02     0s
   3   1.43522080e+04 -4.85187678e+05  5.53e-03 2.55e-11  5.85e+01     0s
   4   5.05160776e+03 -3.46111408e+04  2.12e-05 1.09e-11  4.55e+00     0s
   5   1.83945004e+03 -1.00595646e+04  3.83e-06 5.46e-12  1.36e+00     0s
   6   6.44770696e+02 -2.91223268e+03  3.13e-07 3.31e-12  4.08e-01     0s
   7   3.39038106e+02 -5.96976685e+02  7.06e-08 2.19e-12  1.07e-01     0s
   8   2.01775403e+02 -1.28639479e+02  2.49e-08 3.44e-12  3.79e-02     0s
   9   1.33281397e+02  2.26396313e+01  9.43e-09 2.91e-12  1.27e-02     0s
  10   9.26138230e+01  6.66277355e+01  1.77e-09 2.57e-12  2.98e-03     0s
  11   8.41403680e+01  7.50841315e+01  6.44e-10 6.19e-12  1.04e-03     0s
  12   8.09628864e+01  7.71285332e+01  2.67e-10 4.02e-12  4.40e-04     0s
  13   7.96418737e+01  7.79729138e+01  1.16e-10 1.32e-11  1.91e-04     0s
  14   7.90572918e+01  7.83203167e+01  5.19e-11 2.45e-12  8.45e-05     0s
  15   7.87050901e+01  7.85174107e+01  1.39e-11 1.43e-11  2.15e-05     0s
  16   7.85778339e+01  7.85598857e+01  1.14e-12 2.84e-12  2.06e-06     0s
  17   7.85632661e+01  7.85627128e+01  7.10e-13 2.28e-12  6.35e-08     0s
  18   7.85630367e+01  7.85630246e+01  6.93e-13 2.53e-12  1.39e-09     0s
  19   7.85630284e+01  7.85630284e+01  5.72e-13 3.98e-12  1.25e-14     0s

Barrier solved model in 19 iterations and 0.04 seconds (0.05 work units)
Optimal objective 7.85630284e+01

Crossover log...

     847 DPushes remaining with DInf 0.0000000e+00                 0s
       0 DPushes remaining with DInf 0.0000000e+00                 0s

      10 PPushes remaining with PInf 0.0000000e+00                 0s
       0 PPushes remaining with PInf 0.0000000e+00                 0s

  Push phase complete: Pinf 0.0000000e+00, Dinf 1.7225040e-13      0s

Iteration    Objective       Primal Inf.    Dual Inf.      Time
      81    7.8563028e+01   0.000000e+00   0.000000e+00      0s

Solved in 81 iterations and 0.06 seconds (0.05 work units)
Optimal objective  7.856302843e+01

Gurobi 11.0.0 (linux64) logging started Tue Aug  6 22:33:43 2024

Set parameter LogFile to value "/lustre1/scratch/348/vsc34888/JointResearch/05.Models/06.Benchmarking/L.Cont_Investments_per_hour/9n_mod1_ByStages_nc80/openStarNet_9n_mod1_ByStages_nc80.log"
Set parameter Method to value 2
Set parameter MIPFocus to value 1
Set parameter Presolve to value 2
Set parameter RINS to value 100
Set parameter MIPGap to value 0.01
Set parameter Threads to value 36
Set parameter TimeLimit to value 259200
Set parameter IterationLimit to value 760000000
Gurobi Optimizer version 11.0.0 build v11.0.0rc2 (linux64 - "Rocky Linux 8.9 (Green Obsidian)")

CPU model: Intel(R) Xeon(R) Gold 6240 CPU @ 2.60GHz, instruction set [SSE2|AVX|AVX2|AVX512]
Thread count: 36 physical cores, 36 logical processors, using up to 36 threads

Optimize a model with 20963 rows, 11117 columns and 51892 nonzeros
Model fingerprint: 0xf4eeb98a
Coefficient statistics:
  Matrix range     [4e-04, 3e+03]
  Objective range  [1e+00, 1e+00]
  Bounds range     [2e-04, 2e+00]
  RHS range        [2e-04, 1e+00]
Presolve removed 19043 rows and 7381 columns
Presolve time: 0.02s
Presolved: 1920 rows, 3895 columns, 8865 nonzeros

Ordering time: 0.00s

Barrier statistics:
 AA' NZ     : 4.970e+03
 Factor NZ  : 2.016e+04 (roughly 2 MB of memory)
 Factor Ops : 2.768e+05 (less than 1 second per iteration)
 Threads    : 1

                  Objective                Residual
Iter       Primal          Dual         Primal    Dual     Compl     Time
   0   4.35944557e+05 -5.18797243e+07  5.03e+00 1.44e+01  2.61e+04     0s
   1   8.46166460e+04 -2.34686771e+07  7.83e-01 2.92e-11  4.75e+03     0s
   2   2.56152822e+04 -6.41043480e+06  5.51e-02 2.26e-11  8.00e+02     0s
   3   1.75347874e+04 -2.67179781e+05  1.55e-04 2.46e-11  3.22e+01     0s
   4   7.97880128e+03 -2.25561784e+04  1.84e-06 8.47e-12  3.46e+00     0s
   5   5.93665672e+03 -6.70006180e+03  2.90e-07 3.64e-12  1.43e+00     0s
   6   5.16848998e+03 -1.57166935e+02  2.47e-08 1.82e-12  6.03e-01     0s
   7   4.85943346e+03  2.77899459e+03  3.40e-09 2.73e-12  2.35e-01     0s
   8   4.69101925e+03  3.86504592e+03  6.90e-10 1.82e-12  9.35e-02     0s
   9   4.60994568e+03  4.37740274e+03  5.76e-11 7.28e-12  2.63e-02     0s
  10   4.57812190e+03  4.53186084e+03  1.59e-12 3.64e-12  5.23e-03     0s
  11   4.56934825e+03  4.55077766e+03  3.50e-13 1.82e-12  2.10e-03     0s
  12   4.56640861e+03  4.55968645e+03  1.14e-13 3.64e-12  7.61e-04     0s
  13   4.56509506e+03  4.56317317e+03  3.54e-14 3.64e-12  2.17e-04     0s
  14   4.56457372e+03  4.56402934e+03  1.40e-14 3.64e-12  6.16e-05     0s
  15   4.56438273e+03  4.56431753e+03  2.74e-14 1.82e-12  7.38e-06     0s
  16   4.56436101e+03  4.56435547e+03  5.26e-14 1.82e-12  6.28e-07     0s
  17   4.56435775e+03  4.56435760e+03  2.25e-13 9.09e-13  1.70e-08     0s
  18   4.56435768e+03  4.56435768e+03  5.78e-14 3.64e-12  6.46e-13     0s

Barrier solved model in 18 iterations and 0.04 seconds (0.04 work units)
Optimal objective 4.56435768e+03

Crossover log...

     842 DPushes remaining with DInf 0.0000000e+00                 0s
       0 DPushes remaining with DInf 0.0000000e+00                 0s

      12 PPushes remaining with PInf 0.0000000e+00                 0s
       0 PPushes remaining with PInf 0.0000000e+00                 0s

  Push phase complete: Pinf 0.0000000e+00, Dinf 3.0498302e-13      0s

Iteration    Objective       Primal Inf.    Dual Inf.      Time
     101    4.5643577e+03   0.000000e+00   0.000000e+00      0s

Solved in 101 iterations and 0.05 seconds (0.05 work units)
Optimal objective  4.564357682e+03

Gurobi 11.0.0 (linux64) logging started Tue Aug  6 22:33:45 2024

Set parameter LogFile to value "/lustre1/scratch/348/vsc34888/JointResearch/05.Models/06.Benchmarking/L.Cont_Investments_per_hour/9n_mod1_ByStages_nc80/openStarNet_9n_mod1_ByStages_nc80.log"
Set parameter Method to value 2
Set parameter MIPFocus to value 1
Set parameter Presolve to value 2
Set parameter RINS to value 100
Set parameter MIPGap to value 0.01
Set parameter Threads to value 36
Set parameter TimeLimit to value 259200
Set parameter IterationLimit to value 760000000
Gurobi Optimizer version 11.0.0 build v11.0.0rc2 (linux64 - "Rocky Linux 8.9 (Green Obsidian)")

CPU model: Intel(R) Xeon(R) Gold 6240 CPU @ 2.60GHz, instruction set [SSE2|AVX|AVX2|AVX512]
Thread count: 36 physical cores, 36 logical processors, using up to 36 threads

Optimize a model with 20963 rows, 11117 columns and 51892 nonzeros
Model fingerprint: 0xf4eeb98a
Coefficient statistics:
  Matrix range     [4e-04, 3e+03]
  Objective range  [1e+00, 1e+00]
  Bounds range     [2e-04, 2e+00]
  RHS range        [2e-04, 1e+00]
Presolve removed 19043 rows and 7381 columns
Presolve time: 0.02s
Presolved: 1920 rows, 3895 columns, 8865 nonzeros

Ordering time: 0.00s

Barrier statistics:
 AA' NZ     : 4.970e+03
 Factor NZ  : 2.016e+04 (roughly 2 MB of memory)
 Factor Ops : 2.768e+05 (less than 1 second per iteration)
 Threads    : 1

                  Objective                Residual
Iter       Primal          Dual         Primal    Dual     Compl     Time
   0   4.35944557e+05 -5.18797243e+07  5.03e+00 1.44e+01  2.61e+04     0s
   1   8.46166460e+04 -2.34686771e+07  7.83e-01 2.92e-11  4.75e+03     0s
   2   2.56152822e+04 -6.41043480e+06  5.51e-02 2.26e-11  8.00e+02     0s
   3   1.75347874e+04 -2.67179781e+05  1.55e-04 2.46e-11  3.22e+01     0s
   4   7.97880128e+03 -2.25561784e+04  1.84e-06 8.47e-12  3.46e+00     0s
   5   5.93665672e+03 -6.70006180e+03  2.90e-07 3.64e-12  1.43e+00     0s
   6   5.16848998e+03 -1.57166935e+02  2.47e-08 1.82e-12  6.03e-01     0s
   7   4.85943346e+03  2.77899459e+03  3.40e-09 2.73e-12  2.35e-01     0s
   8   4.69101925e+03  3.86504592e+03  6.90e-10 1.82e-12  9.35e-02     0s
   9   4.60994568e+03  4.37740274e+03  5.76e-11 7.28e-12  2.63e-02     0s
  10   4.57812190e+03  4.53186084e+03  1.59e-12 3.64e-12  5.23e-03     0s
  11   4.56934825e+03  4.55077766e+03  3.50e-13 1.82e-12  2.10e-03     0s
  12   4.56640861e+03  4.55968645e+03  1.14e-13 3.64e-12  7.61e-04     0s
  13   4.56509506e+03  4.56317317e+03  3.54e-14 3.64e-12  2.17e-04     0s
  14   4.56457372e+03  4.56402934e+03  1.40e-14 3.64e-12  6.16e-05     0s
  15   4.56438273e+03  4.56431753e+03  2.74e-14 1.82e-12  7.38e-06     0s
  16   4.56436101e+03  4.56435547e+03  5.26e-14 1.82e-12  6.28e-07     0s
  17   4.56435775e+03  4.56435760e+03  2.25e-13 9.09e-13  1.70e-08     0s
  18   4.56435768e+03  4.56435768e+03  5.78e-14 3.64e-12  6.46e-13     0s

Barrier solved model in 18 iterations and 0.04 seconds (0.04 work units)
Optimal objective 4.56435768e+03

Crossover log...

     842 DPushes remaining with DInf 0.0000000e+00                 0s
       0 DPushes remaining with DInf 0.0000000e+00                 0s

      12 PPushes remaining with PInf 0.0000000e+00                 0s
       0 PPushes remaining with PInf 0.0000000e+00                 0s

  Push phase complete: Pinf 0.0000000e+00, Dinf 3.0498302e-13      0s

Iteration    Objective       Primal Inf.    Dual Inf.      Time
     101    4.5643577e+03   0.000000e+00   0.000000e+00      0s

Solved in 101 iterations and 0.05 seconds (0.05 work units)
Optimal objective  4.564357682e+03
